p tw 59 66
1 2
2 13
3 4
3 9
4 5
5 6
6 7
7 8
8 56
9 10
10 11
11 12
12 14
13 24
14 15
15 16
16 17
17 18
17 33
18 19
18 33
19 20
20 21
21 22
22 23
23 25
24 35
25 26
25 31
26 27
27 28
28 29
29 30
30 20
31 32
32 33
33 34
34 36
34 49
35 46
36 37
36 49
37 38
38 39
39 40
40 41
41 42
42 43
42 49
43 44
44 45
45 47
46 56
47 48
48 38
49 50
50 51
50 52
51 52
52 53
53 54
54 55
56 57
57 58
58 59
59 3
